p cnf 48 36
-1 2 9 18 21 22 27 35 42 43 0 
-2 1 9 18 21 22 27 35 42 44 0 
-3 14 -4 16 25 39 44 0 
-5 17 34 43 0 
-6 10 43 0 
-7 37 38 45 0 
-7 37 38 43 0 
-8 43 0 
-9 1 2 18 21 22 27 35 42 43 0 
-1 2 9 18 21 22 27 35 42 43 0 
-10 6 -11 -12 43 0 
-13 -14 3 -6 10 43 0 
-15 28 40 -13 -16 4 25 39 -17 5 34 46 0 
-18 1 2 9 21 22 27 35 42 44 0 
-19 -20 -18 1 2 9 21 22 27 35 42 -10 6 43 0 
-21 1 2 9 18 22 27 35 42 -15 28 40 -17 5 34 47 0 
-22 1 2 9 18 21 27 35 42 -23 29 30 -24 41 -25 4 16 39 44 0 
-26 43 0 
-2 1 9 18 21 22 27 35 42 -3 14 44 0 
-19 -13 -7 37 38 -27 1 2 9 18 21 22 35 42 -28 15 40 45 0 
-29 23 30 -25 4 16 39 44 0 
-30 23 29 -31 -32 47 0 
-33 -7 37 38 -28 15 40 45 0 
-4 16 25 39 -3 14 43 0 
-34 5 17 43 0 
-19 -20 -35 1 2 9 18 21 22 27 42 43 0 
-23 29 30 -36 -3 14 -10 6 43 0 
-37 7 38 -22 1 2 9 18 21 27 35 42 44 0 
-38 7 37 45 0 
-14 3 -39 4 16 25 43 0 
-35 1 2 9 18 21 22 27 42 47 0 
-1 2 9 18 21 22 27 35 42 -10 6 43 0 
-40 15 28 48 0 
-2 1 9 18 21 22 27 35 42 -41 24 44 0 
-19 -6 10 -13 -24 41 43 0 
-42 1 2 9 18 21 22 27 35 43 0 
